set L :=
4m1
4m2
4m3
4p1
4p2
4b1
4b2
;

set S :=
Mo8
Mo9
Tu8
Tu9
We8
We9
Th8
Th9
Fr8
Fr9
;

set T :=
Ala
Pawel
Zbigniew
;

set R :=
R10
R11
R12
;

set LT[Ala] :=
4b1
4b2
;

set LT[Pawel] :=
4m1
4m2
4m3
;

set LT[Zbigniew] :=
4p1
4p2
;

set LR[R10] :=
4b1
4b2
;

set LR[R11] :=
4m1
4m2
4m3
;

set LR[R12] :=
4p1
4p2
;
